decision_x1=[0,2];
decision_x2=[0,2];
decision_x3=[0,2];
decision_x4=[0,2];
decision_x5=[0,2];
decision_x6=[0,2];
decision_x7=[0,2];
decision_x8=[0,2];
decision_x9=[0,2];
decision_x10=[0,2];
decision_x11=[0,2];
decision_x12=[0,2];
random_y1=[0,2];
random_y2=[0,2];
random_y3=[0,2];
random_y4=[0,2];
random_y5=[0,2];
random_y6=[0,2];
random_y7=[0,2];
random_y8=[0,2];
random_y9=[0,2];
random_y10=[0,2];
random_y11=[0,2];
random_y12=[0,2];
constraint_x3_x1=[
0,0,57|
0,1,88|
0,2,86|
1,0,64|
1,1,46|
1,2,99|
2,0,59|
2,1,38|
2,2,23|
];
constraint_x5_x1=[
0,0,45|
0,1,71|
0,2,98|
1,0,50|
1,1,76|
1,2,76|
2,0,3.1|
2,1,40|
2,2,99|
];
constraint_x5_x2=[
0,0,17|
0,1,95|
0,2,58|
1,0,52|
1,1,89|
1,2,22|
2,0,48|
2,1,82|
2,2,59|
];
constraint_x6_x2=[
0,0,83|
0,1,90|
0,2,49|
1,0,0.084|
1,1,17|
1,2,73|
2,0,34|
2,1,34|
2,2,85|
];
constraint_x6_x4=[
0,0,6.9|
0,1,8.3|
0,2,89|
1,0,89|
1,1,57|
1,2,53|
2,0,8.3|
2,1,39|
2,2,99|
];
constraint_x6_x5=[
0,0,99|
0,1,70|
0,2,44|
1,0,6.4|
1,1,44|
1,2,69|
2,0,42|
2,1,2.5|
2,2,63|
];
constraint_x7_x3=[
0,0,39|
0,1,34|
0,2,20|
1,0,51|
1,1,88|
1,2,16|
2,0,84|
2,1,95|
2,2,47|
];
constraint_x7_x4=[
0,0,33|
0,1,58|
0,2,85|
1,0,13|
1,1,59|
1,2,93|
2,0,85|
2,1,19|
2,2,95|
];
constraint_x8_x2=[
0,0,58|
0,1,15|
0,2,48|
1,0,17|
1,1,20|
1,2,54|
2,0,63|
2,1,88|
2,2,38|
];
constraint_x8_x3=[
0,0,98|
0,1,22|
0,2,17|
1,0,46|
1,1,45|
1,2,17|
2,0,47|
2,1,93|
2,2,21|
];
constraint_x9_x1=[
0,0,85|
0,1,79|
0,2,51|
1,0,71|
1,1,34|
1,2,92|
2,0,40|
2,1,76|
2,2,84|
];
constraint_x9_x5=[
0,0,55|
0,1,88|
0,2,2.3|
1,0,66|
1,1,26|
1,2,69|
2,0,41|
2,1,1e+02|
2,2,40|
];
constraint_x9_x6=[
0,0,19|
0,1,0.55|
0,2,67|
1,0,68|
1,1,38|
1,2,53|
2,0,86|
2,1,39|
2,2,95|
];
constraint_x9_x8=[
0,0,67|
0,1,87|
0,2,92|
1,0,6.5|
1,1,61|
1,2,47|
2,0,44|
2,1,56|
2,2,64|
];
constraint_x10_x1=[
0,0,4.9|
0,1,90|
0,2,63|
1,0,31|
1,1,44|
1,2,92|
2,0,26|
2,1,87|
2,2,11|
];
constraint_x10_x3=[
0,0,18|
0,1,68|
0,2,66|
1,0,74|
1,1,50|
1,2,27|
2,0,29|
2,1,67|
2,2,71|
];
constraint_x10_x6=[
0,0,29|
0,1,71|
0,2,67|
1,0,42|
1,1,25|
1,2,95|
2,0,67|
2,1,53|
2,2,90|
];
constraint_x10_x8=[
0,0,91|
0,1,2.7|
0,2,3.2|
1,0,26|
1,1,46|
1,2,70|
2,0,85|
2,1,21|
2,2,53|
];
constraint_x11_x2=[
0,0,62|
0,1,45|
0,2,58|
1,0,78|
1,1,98|
1,2,23|
2,0,55|
2,1,17|
2,2,90|
];
constraint_x11_x3=[
0,0,47|
0,1,78|
0,2,14|
1,0,86|
1,1,86|
1,2,70|
2,0,4.7|
2,1,22|
2,2,69|
];
constraint_x11_x4=[
0,0,9.7|
0,1,89|
0,2,95|
1,0,5.7|
1,1,70|
1,2,90|
2,0,13|
2,1,46|
2,2,79|
];
constraint_x11_x5=[
0,0,51|
0,1,49|
0,2,29|
1,0,87|
1,1,1e+02|
1,2,89|
2,0,34|
2,1,68|
2,2,27|
];
constraint_x11_x6=[
0,0,63|
0,1,92|
0,2,67|
1,0,56|
1,1,54|
1,2,50|
2,0,85|
2,1,25|
2,2,72|
];
constraint_x11_x7=[
0,0,44|
0,1,41|
0,2,3.8|
1,0,95|
1,1,44|
1,2,26|
2,0,11|
2,1,9.3|
2,2,27|
];
constraint_x11_x8=[
0,0,75|
0,1,6.8|
0,2,11|
1,0,63|
1,1,29|
1,2,69|
2,0,78|
2,1,2.7|
2,2,58|
];
constraint_x11_x10=[
0,0,98|
0,1,9.2|
0,2,37|
1,0,54|
1,1,38|
1,2,12|
2,0,3.8|
2,1,55|
2,2,63|
];
constraint_x12_x3=[
0,0,60|
0,1,0.83|
0,2,95|
1,0,80|
1,1,89|
1,2,12|
2,0,53|
2,1,84|
2,2,25|
];
constraint_x12_x5=[
0,0,46|
0,1,46|
0,2,84|
1,0,90|
1,1,76|
1,2,36|
2,0,78|
2,1,7.4|
2,2,61|
];
constraint_x12_x6=[
0,0,54|
0,1,29|
0,2,21|
1,0,24|
1,1,29|
1,2,54|
2,0,57|
2,1,79|
2,2,7.7|
];
constraint_x12_x7=[
0,0,71|
0,1,8.4|
0,2,50|
1,0,71|
1,1,35|
1,2,46|
2,0,78|
2,1,49|
2,2,82|
];
constraint_x12_x8=[
0,0,81|
0,1,44|
0,2,79|
1,0,88|
1,1,14|
1,2,98|
2,0,81|
2,1,26|
2,2,55|
];
constraint_x12_x10=[
0,0,1e+02|
0,1,76|
0,2,85|
1,0,31|
1,1,55|
1,2,98|
2,0,16|
2,1,60|
2,2,9.3|
];
constraint_x12_x11=[
0,0,80|
0,1,2.1|
0,2,88|
1,0,20|
1,1,94|
1,2,60|
2,0,80|
2,1,1.2|
2,2,17|
];
constraint_x1_y1=[
0,0,77|
0,1,37|
0,2,64|
1,0,75|
1,1,66|
1,2,29|
2,0,51|
2,1,82|
2,2,83|
];
constraint_x2_y2=[
0,0,15|
0,1,13|
0,2,97|
1,0,82|
1,1,77|
1,2,85|
2,0,61|
2,1,79|
2,2,50|
];
constraint_x3_y3=[
0,0,43|
0,1,31|
0,2,49|
1,0,77|
1,1,44|
1,2,25|
2,0,45|
2,1,29|
2,2,0.33|
];
constraint_x4_y4=[
0,0,93|
0,1,80|
0,2,5.3|
1,0,93|
1,1,6.9|
1,2,42|
2,0,90|
2,1,37|
2,2,85|
];
constraint_x5_y5=[
0,0,13|
0,1,87|
0,2,35|
1,0,36|
1,1,93|
1,2,57|
2,0,75|
2,1,26|
2,2,67|
];
constraint_x6_y6=[
0,0,73|
0,1,71|
0,2,64|
1,0,22|
1,1,81|
1,2,90|
2,0,8.9|
2,1,95|
2,2,17|
];
constraint_x7_y7=[
0,0,2.2|
0,1,76|
0,2,53|
1,0,70|
1,1,9|
1,2,2.6|
2,0,35|
2,1,16|
2,2,95|
];
constraint_x8_y8=[
0,0,80|
0,1,72|
0,2,45|
1,0,78|
1,1,19|
1,2,21|
2,0,97|
2,1,62|
2,2,77|
];
constraint_x9_y9=[
0,0,56|
0,1,96|
0,2,40|
1,0,76|
1,1,28|
1,2,81|
2,0,42|
2,1,63|
2,2,80|
];
constraint_x10_y10=[
0,0,5.9|
0,1,15|
0,2,94|
1,0,61|
1,1,59|
1,2,93|
2,0,23|
2,1,69|
2,2,19|
];
constraint_x11_y11=[
0,0,79|
0,1,7.5|
0,2,22|
1,0,52|
1,1,59|
1,2,77|
2,0,68|
2,1,42|
2,2,43|
];
constraint_x12_y12=[
0,0,86|
0,1,36|
0,2,24|
1,0,65|
1,1,22|
1,2,49|
2,0,61|
2,1,6|
2,2,67|
];
initial_distribution_y1=[0.15,0.027,0.83];
initial_distribution_y2=[0.23,0.17,0.6];
initial_distribution_y3=[0.17,0.22,0.61];
initial_distribution_y4=[0.62,0.34,0.042];
initial_distribution_y5=[0.27,0.34,0.4];
initial_distribution_y6=[0.58,0.38,0.043];
initial_distribution_y7=[0.21,0.43,0.36];
initial_distribution_y8=[0.053,0.35,0.6];
initial_distribution_y9=[0.53,0.2,0.27];
initial_distribution_y10=[0.6,0.37,0.032];
initial_distribution_y11=[0.17,0.3,0.52];
initial_distribution_y12=[0.36,0.59,0.053];
transition_y1=[
0.41,0.44,0.15|
0.62,0.22,0.16|
0.3,0.23,0.47|
];
transition_y2=[
0.11,0.69,0.19|
0.84,0.12,0.046|
0.29,0.42,0.29|
];
transition_y3=[
0.41,0.4,0.19|
0.4,0.3,0.3|
0.74,0.12,0.14|
];
transition_y4=[
0.54,0.13,0.33|
0.35,0.46,0.19|
0.65,0.29,0.059|
];
transition_y5=[
0.24,0.17,0.59|
0.24,0.37,0.38|
0.3,0.59,0.11|
];
transition_y6=[
0.3,0.57,0.13|
0.059,0.36,0.58|
0.66,0.27,0.073|
];
transition_y7=[
0.27,0.5,0.23|
0.079,0.58,0.34|
0.48,0.016,0.51|
];
transition_y8=[
0.25,0.34,0.41|
0.075,0.49,0.43|
0.38,0.065,0.55|
];
transition_y9=[
0.4,0.48,0.12|
0.21,0.58,0.2|
0.33,0.068,0.6|
];
transition_y10=[
0.55,0.12,0.33|
0.46,0.14,0.41|
0.026,0.31,0.66|
];
transition_y11=[
0.48,0.2,0.32|
0.21,0.41,0.39|
0.17,0.25,0.58|
];
transition_y12=[
0.39,0.46,0.15|
0.51,0.34,0.16|
0.72,0.17,0.11|
];
